(set-logic HORN)
(declare-fun state (Int Int Int Int (Array Int Int) Int Int Int Bool Bool Bool Int Int Int) Bool)
(assert (forall ((|main@%_2_0_5| Int) (|main@%_8_0_5| Int) (|main@%_3_0_5| Int) (|.y.12| Int) (|main@%shadow.mem.0_0_5| (Array Int Int)) (|main@%j.1.i_0_2| Int) (|main@%i.1.i_0_3| Int) (|main@%_1_0_5| Int) (|.loc.13| Bool) (|.loc.14| Bool) (|.loc.15| Bool) (|main@%_28_0_0| Int) (|main@%_27_0_0| Int) (|main@%_26_0_0| Int) (|.loc.25| Bool) (|.loc.26| Bool) (|.loc.24| Bool) (|.y.23| Int) (|.y.21| Int) (|.y.16| Int) (|.y.17| Int) (|.y.18| Int) (|.y.20| (Array Int Int)) (|.y.22| Int) (|.y.19| Int) (|.xtv.1| Int) (|.xtv.2| Int) (|.xtv.3| Int)) (=> (and (and .loc.13 (not .loc.14)) (not .loc.15)) (state |main@%_2_0_5| |main@%_8_0_5| |main@%_3_0_5| |.y.12| |main@%shadow.mem.0_0_5| |main@%j.1.i_0_2| |main@%i.1.i_0_3| |main@%_1_0_5| |.loc.13| |.loc.14| |.loc.15| |main@%_28_0_0| |main@%_27_0_0| |main@%_26_0_0|))))
(assert (forall ((|main@%_2_0_5| Int) (|main@%_8_0_5| Int) (|main@%_3_0_5| Int) (|.y.12| Int) (|main@%shadow.mem.0_0_5| (Array Int Int)) (|main@%j.1.i_0_2| Int) (|main@%i.1.i_0_3| Int) (|main@%_1_0_5| Int) (|.loc.13| Bool) (|.loc.14| Bool) (|.loc.15| Bool) (|main@%_28_0_0| Int) (|main@%_27_0_0| Int) (|main@%_26_0_0| Int) (|.loc.25| Bool) (|.loc.26| Bool) (|.loc.24| Bool) (|.y.23| Int) (|.y.21| Int) (|.y.16| Int) (|.y.17| Int) (|.y.18| Int) (|.y.20| (Array Int Int)) (|.y.22| Int) (|.y.19| Int) (|.xtv.1| Int) (|.xtv.2| Int) (|.xtv.3| Int)) (=> (and (state |main@%_2_0_5| |main@%_8_0_5| |main@%_3_0_5| |.y.12| |main@%shadow.mem.0_0_5| |main@%j.1.i_0_2| |main@%i.1.i_0_3| |main@%_1_0_5| |.loc.13| |.loc.14| |.loc.15| |main@%_28_0_0| |main@%_27_0_0| |main@%_26_0_0|) (let ((.def_24 (not .loc.14))) (let ((.def_26 (not .loc.15))) (let ((.def_29 (not .loc.25))) (let ((.def_33 (<= main@%_3_0_5 (select main@%shadow.mem.0_0_5 main@%_28_0_0)))) (let ((.def_45 (<= main@%_27_0_0 0))) (let ((.def_46 (not .def_45))) (let ((.def_48 (<= main@%_2_0_5 main@%j.1.i_0_2))) (let ((.def_62 (or .def_45 (not (<= main@%_28_0_0 0))))) (let ((.def_63 (and (and (= (+ main@%j.1.i_0_2 (+ (* (- 1) main@%_28_0_0) main@%_27_0_0)) 0) (and (or (<= main@%_8_0_5 0) .def_46) (and .def_46 (and (not .def_48) (= (+ main@%_8_0_5 (+ (* (- 1) main@%_27_0_0) main@%_26_0_0)) 0))))) .def_62))) (let ((.def_66 (not .loc.13))) (let ((.def_76 (not .loc.24))) (let ((.def_80 (= .y.21 0))) (let ((.def_84 (= main@%_2_0_5 .y.16))) (let ((.def_87 (= main@%_8_0_5 .y.17))) (let ((.def_90 (= main@%_3_0_5 .y.18))) (let ((.def_93 (= main@%shadow.mem.0_0_5 .y.20))) (let ((.def_96 (= main@%j.1.i_0_2 .y.22))) (let ((.def_116 (not .loc.26))) (let ((.def_136 (= main@%i.1.i_0_3 .y.22))) (let ((.def_143 (and .loc.14 .def_66))) (let ((.def_151 (<= main@%j.1.i_0_2 main@%_2_0_5))) (let ((.def_172 (<= main@%_8_0_5 .y.12))) (or (or (or (or (or (or (or (and (and .def_29 .loc.26) (or (and (and .def_24 (and (and .loc.15 (and (not .def_33) .def_63)) .def_66)) .loc.24) (and (= main@%i.1.i_0_3 .y.23) (and (and (and (and (and (and (not (<= main@%i.1.i_0_3 main@%j.1.i_0_2)) (and (and .def_26 (and (and .loc.13 .loc.14) .def_76)) .def_80)) .def_84) .def_87) .def_90) .def_93) .def_96)))) (and (= main@%_1_0_5 .y.22) (and (= (+ main@%i.1.i_0_3 (* (- 1) .y.21)) (- 1)) (and (and .def_93 (and .def_90 (and .def_87 (and .def_84 (and .loc.25 (and .loc.24 (and .def_24 (and .def_66 (and .loc.15 .def_48))))))))) .def_116)))) (and (= main@%_1_0_5 .y.23) (and (and (= (+ main@%j.1.i_0_2 (* (- 1) .y.21)) (- 1)) (and .def_93 (and .def_90 (and .def_87 (and .def_84 (and .def_76 (and .def_29 (and .loc.26 (and .def_24 (and .def_66 (and .loc.15 (and .def_33 .def_63)))))))))))) .def_136))) (and (= .y.12 .y.18) (and (= main@%_3_0_5 .y.17) (and (= main@%_8_0_5 .y.16) (and (and .def_116 (and .def_96 (and .def_93 (and .def_80 (and .def_26 (and .loc.25 (and .loc.24 .def_143))))))) .def_151))))) (and (= main@%i.1.i_0_3 .y.21) (and (= main@%j.1.i_0_2 .y.19) (and (and (= (+ main@%_2_0_5 (* (- 1) .y.16)) (- 1)) (and .def_116 (and .def_93 (and .def_90 (and .def_87 (and .def_26 (and .def_76 (and .loc.25 (and .def_24 .def_66))))))))) .def_172)))) (and (= main@%j.1.i_0_2 .y.21) (and (= (+ .y.12 (+ (* (- 1) main@%_28_0_0) main@%_27_0_0)) 0) (and (or .def_46 (<= main@%_3_0_5 0)) (and (not .def_172) (and (= (+ main@%_3_0_5 (+ (* (- 1) main@%_27_0_0) main@%_26_0_0)) 0) (and (= .y.20 (store main@%shadow.mem.0_0_5 main@%_28_0_0 main@%j.1.i_0_2)) (and (= (+ .y.12 (* (- 1) .y.19)) (- 1)) (and .def_136 (and .def_116 (and .def_90 (and .def_87 (and .def_84 (and .def_26 (and .def_76 (and .def_29 (and .def_24 (and .def_66 (and .def_46 .def_62))))))))))))))))))) (and (not (<= .y.21 0)) (and (not (<= .y.17 0)) (and (not (<= .y.18 0)) (and (= .y.16 0) (and .def_116 (and .def_26 (and .def_76 (and (and .loc.13 .def_24) .loc.25))))))))) (and (= .y.12 .y.21) (and (not .def_151) (and (= .y.19 0) (and .def_116 (and .def_96 (and .def_93 (and .def_90 (and .def_87 (and .def_84 (and .def_26 (and .def_76 (and .def_29 .def_143)))))))))))))))))))))))))))))))))))) (state |.y.16| |.y.17| |.y.18| |.y.19| |.y.20| |.y.21| |.y.22| |.y.23| |.loc.24| |.loc.25| |.loc.26| |.xtv.1| |.xtv.2| |.xtv.3|))))
(assert (forall ((|main@%_2_0_5| Int) (|main@%_8_0_5| Int) (|main@%_3_0_5| Int) (|.y.12| Int) (|main@%shadow.mem.0_0_5| (Array Int Int)) (|main@%j.1.i_0_2| Int) (|main@%i.1.i_0_3| Int) (|main@%_1_0_5| Int) (|.loc.13| Bool) (|.loc.14| Bool) (|.loc.15| Bool) (|main@%_28_0_0| Int) (|main@%_27_0_0| Int) (|main@%_26_0_0| Int) (|.loc.25| Bool) (|.loc.26| Bool) (|.loc.24| Bool) (|.y.23| Int) (|.y.21| Int) (|.y.16| Int) (|.y.17| Int) (|.y.18| Int) (|.y.20| (Array Int Int)) (|.y.22| Int) (|.y.19| Int) (|.xtv.1| Int) (|.xtv.2| Int) (|.xtv.3| Int)) (=> (state |main@%_2_0_5| |main@%_8_0_5| |main@%_3_0_5| |.y.12| |main@%shadow.mem.0_0_5| |main@%j.1.i_0_2| |main@%i.1.i_0_3| |main@%_1_0_5| |.loc.13| |.loc.14| |.loc.15| |main@%_28_0_0| |main@%_27_0_0| |main@%_26_0_0|) (not (and .loc.15 (and .loc.13 (not .loc.14)))))))
(check-sat)
